Minimize
  - 17 y_0 - 19 y_1 - 26 y_2 - 23 y_3 - 16 y_4 - 9 y_5 - 20 y_6 - 24 y_7
   - 30 y_8 - 28 y_9 - 16 y_10 - 20 y_11 - 23 y_12 - 23 y_13 - 15 y_14
   - 20 y_15 - 3 y_16 - 31 y_17 - 28 y_18 - 26 y_21 - 17 y_22 - 8 y_23
   - 26 y_24 - 26 y_25 - 6 y_26 - 15 y_27 - 12 y_28 - 7 y_29 - 29 y_30
   - 12 y_31 - 17 y_32 - 29 y_33 - 28 y_34 - 13 y_35 - 21 y_36 - 6 y_37
   - 10 y_38 - 28 y_39 - 28 y_40 - 24 y_41 - 26 y_42 - 10 y_43 - 22 y_44
   - 23 y_45 - 23 y_46 - 12 y_47 - 21 y_48 - 9 y_49 + 81 x_0_1 + 77 x_0_5
   + 85 x_0_6 + 73 x_0_7 + 73 x_0_8 + 10 x_0_10 + 25 x_0_12 + 52 x_0_13
   + 83 x_0_14 + 9 x_0_15 + 59 x_0_16 + 78 x_0_17 + 80 x_0_18 + 70 x_0_19
   + 70 x_0_20 + 53 x_0_21 + 66 x_0_22 + 38 x_0_23 + 81 x_0_24 + 71 x_0_26
   + 80 x_0_27 + 57 x_0_29 + 75 x_0_30 + 89 x_0_32 + 66 x_0_33 + 62 x_0_34
   + 18 x_0_35 + 91 x_0_36 + 45 x_0_37 + 31 x_0_38 + 72 x_0_39 + 70 x_0_40
   + 83 x_0_42 + 45 x_0_43 + 49 x_0_44 + 94 x_0_48 + 48 x_0_49 + 17 x_1_3
   + 36 x_1_4 + 46 x_1_5 + 4 x_1_6 + 67 x_1_9 + 88 x_1_12 + 24 x_1_14
   + 84 x_1_15 + 51 x_1_18 + 77 x_1_19 + 15 x_1_22 + 69 x_1_23 + 34 x_1_24
   + 55 x_1_26 + 20 x_1_27 + 32 x_1_28 + 60 x_1_30 + 19 x_1_32 + 71 x_1_33
   + 65 x_1_34 + 82 x_1_35 + 10 x_1_36 + 74 x_1_38 + 58 x_1_39 + 59 x_1_40
   + 26 x_1_41 + 46 x_1_43 + 49 x_1_44 + 14 x_1_46 + 63 x_1_47 + 50 x_1_49
   + 38 x_2_3 + 80 x_2_5 + 41 x_2_6 + 9 x_2_7 + 37 x_2_8 + 38 x_2_9
   + 74 x_2_10 + 45 x_2_11 + 76 x_2_12 + 31 x_2_13 + 62 x_2_14 + 80 x_2_15
   + 35 x_2_17 + 13 x_2_18 + 106 x_2_19 + 105 x_2_20 + 44 x_2_21
   + 41 x_2_22 + 5 x_2_24 + 87 x_2_26 + 57 x_2_27 + 77 x_2_29 + 24 x_2_30
   + 73 x_2_31 + 40 x_2_33 + 43 x_2_36 + 95 x_2_37 + 24 x_2_39 + 26 x_2_40
   + 14 x_2_41 + 7 x_2_42 + 67 x_2_43 + 33 x_2_44 + 80 x_2_45 + 33 x_2_46
   + 74 x_2_47 + 47 x_2_48 + 73 x_2_49 + 60 x_3_5 + 37 x_3_7 + 87 x_3_10
   + 67 x_3_11 + 101 x_3_12 + 60 x_3_13 + 36 x_3_14 + 99 x_3_15 + 84 x_3_16
   + 73 x_3_17 + 92 x_3_20 + 77 x_3_21 + 86 x_3_23 + 34 x_3_24 + 35 x_3_25
   + 70 x_3_26 + 33 x_3_27 + 50 x_3_28 + 67 x_3_29 + 28 x_3_32 + 71 x_3_34
   + 99 x_3_35 + 10 x_3_36 + 92 x_3_37 + 92 x_3_38 + 61 x_3_39 + 31 x_3_42
   + 63 x_3_43 + 59 x_3_44 + 104 x_3_45 + 6 x_3_46 + 80 x_3_47 + 47 x_4_5
   + 36 x_4_7 + 35 x_4_10 + 54 x_4_12 + 31 x_4_13 + 42 x_4_14 + 49 x_4_15
   + 50 x_4_16 + 62 x_4_17 + 63 x_4_19 + 47 x_4_21 + 22 x_4_22 + 43 x_4_24
   + 44 x_4_25 + 38 x_4_27 + 22 x_4_28 + 36 x_4_29 + 45 x_4_31 + 47 x_4_32
   + 55 x_4_33 + 49 x_4_34 + 48 x_4_35 + 44 x_4_38 + 50 x_4_40 + 42 x_4_41
   + 45 x_4_42 + 28 x_4_44 + 57 x_4_45 + 46 x_4_46 + 30 x_4_47 + 50 x_4_48
   + 29 x_4_49 + 46 x_5_6 + 72 x_5_7 + 104 x_5_8 + 96 x_5_9 + 70 x_5_11
   + 24 x_5_14 + 84 x_5_15 + 30 x_5_16 + 106 x_5_17 + 91 x_5_18 + 39 x_5_22
   + 76 x_5_24 + 12 x_5_26 + 27 x_5_27 + 96 x_5_30 + 11 x_5_31 + 101 x_5_33
   + 95 x_5_34 + 46 x_5_37 + 93 x_5_39 + 94 x_5_40 + 69 x_5_41 + 75 x_5_42
   + 74 x_5_44 + 96 x_5_45 + 59 x_5_46 + 51 x_5_47 + 29 x_5_49 + 37 x_6_7
   + 71 x_6_9 + 75 x_6_10 + 55 x_6_13 + 23 x_6_14 + 89 x_6_15 + 75 x_6_17
   + 54 x_6_18 + 79 x_6_19 + 77 x_6_20 + 19 x_6_22 + 36 x_6_24 + 56 x_6_26
   + 19 x_6_27 + 35 x_6_28 + 52 x_6_29 + 36 x_6_31 + 17 x_6_32 + 75 x_6_33
   + 6 x_6_36 + 78 x_6_37 + 77 x_6_38 + 28 x_6_41 + 35 x_6_42 + 49 x_6_43
   + 53 x_6_44 + 95 x_6_45 + 13 x_6_46 + 66 x_6_47 + 10 x_6_48 + 53 x_6_49
   + 36 x_7_9 + 25 x_7_13 + 55 x_7_14 + 73 x_7_15 + 38 x_7_17 + 97 x_7_19
   + 77 x_7_23 + 8 x_7_24 + 79 x_7_26 + 51 x_7_27 + 68 x_7_29 + 26 x_7_30
   + 66 x_7_31 + 53 x_7_32 + 39 x_7_33 + 34 x_7_34 + 81 x_7_35 + 40 x_7_36
   + 86 x_7_37 + 25 x_7_39 + 27 x_7_40 + 11 x_7_42 + 57 x_7_43 + 26 x_7_44
   + 65 x_7_47 + 44 x_7_48 + 63 x_7_49 + 12 x_8_9 + 43 x_8_11 + 58 x_8_12
   + 29 x_8_13 + 91 x_8_14 + 5 x_8_17 + 121 x_8_19 + 121 x_8_20 + 41 x_8_24
   + 108 x_8_26 + 87 x_8_27 + 95 x_8_29 + 13 x_8_30 + 100 x_8_31
   + 90 x_8_32 + 104 x_8_37 + 14 x_8_39 + 12 x_8_40 + 50 x_8_41 + 81 x_8_43
   + 32 x_8_44 + 61 x_8_45 + 82 x_8_48 + 47 x_9_12 + 57 x_9_15 + 98 x_9_16
   + 17 x_9_17 + 28 x_9_18 + 111 x_9_19 + 111 x_9_20 + 61 x_9_22
   + 41 x_9_24 + 99 x_9_26 + 81 x_9_27 + 18 x_9_30 + 5 x_9_33 + 2 x_9_34
   + 75 x_9_36 + 93 x_9_37 + 82 x_9_38 + 16 x_9_39 + 45 x_9_42 + 71 x_9_43
   + 22 x_9_44 + 51 x_9_45 + 67 x_9_46 + 68 x_9_47 + 79 x_9_48 + 77 x_9_49
   + 30 x_10_11 + 73 x_10_14 + 52 x_10_16 + 74 x_10_18 + 63 x_10_19
   + 64 x_10_20 + 51 x_10_21 + 32 x_10_23 + 73 x_10_24 + 73 x_10_25
   + 63 x_10_26 + 70 x_10_27 + 48 x_10_28 + 48 x_10_29 + 71 x_10_30
   + 70 x_10_31 + 63 x_10_33 + 59 x_10_34 + 39 x_10_37 + 26 x_10_38
   + 67 x_10_39 + 74 x_10_41 + 35 x_10_43 + 43 x_10_44 + 30 x_10_45
   + 81 x_10_46 + 85 x_10_48 + 34 x_11_12 + 16 x_11_13 + 35 x_11_15
   + 67 x_11_16 + 47 x_11_17 + 44 x_11_18 + 80 x_11_19 + 80 x_11_20
   + 25 x_11_21 + 45 x_11_24 + 45 x_11_25 + 70 x_11_26 + 61 x_11_27
   + 45 x_11_28 + 41 x_11_30 + 68 x_11_31 + 36 x_11_33 + 31 x_11_34
   + 48 x_11_35 + 64 x_11_36 + 61 x_11_37 + 51 x_11_38 + 37 x_11_39
   + 36 x_11_40 + 48 x_11_41 + 48 x_11_42 + 41 x_11_43 + 13 x_11_44
   + 60 x_11_46 + 36 x_11_47 + 68 x_11_48 + 47 x_11_49 + 96 x_12_14
   + 16 x_12_15 + 63 x_12_17 + 72 x_12_18 + 93 x_12_19 + 94 x_12_20
   + 38 x_12_21 + 75 x_12_22 + 61 x_12_23 + 77 x_12_24 + 77 x_12_25
   + 92 x_12_26 + 92 x_12_27 + 77 x_12_29 + 64 x_12_30 + 96 x_12_31
   + 50 x_12_33 + 49 x_12_34 + 43 x_12_35 + 69 x_12_37 + 55 x_12_38
   + 59 x_12_40 + 82 x_12_41 + 81 x_12_42 + 62 x_12_43 + 44 x_12_44
   + 47 x_12_47 + 102 x_12_48 + 67 x_13_14 + 50 x_13_15 + 29 x_13_18
   + 43 x_13_22 + 67 x_13_23 + 33 x_13_24 + 32 x_13_25 + 80 x_13_26
   + 63 x_13_27 + 52 x_13_28 + 25 x_13_30 + 73 x_13_31 + 24 x_13_33
   + 18 x_13_34 + 64 x_13_35 + 60 x_13_36 + 76 x_13_37 + 21 x_13_39
   + 21 x_13_40 + 38 x_13_41 + 36 x_13_42 + 49 x_13_45 + 53 x_13_46
   + 52 x_13_47 + 64 x_13_48 + 88 x_14_15 + 51 x_14_16 + 92 x_14_17
   + 60 x_14_23 + 57 x_14_24 + 58 x_14_25 + 35 x_14_26 + 25 x_14_28
   + 10 x_14_32 + 84 x_14_34 + 78 x_14_35 + 26 x_14_36 + 67 x_14_38
   + 79 x_14_39 + 49 x_14_41 + 40 x_14_43 + 98 x_14_45 + 25 x_14_48
   + 40 x_14_49 + 68 x_15_16 + 74 x_15_17 + 78 x_15_19 + 79 x_15_20
   + 48 x_15_21 + 70 x_15_22 + 47 x_15_23 + 81 x_15_24 + 86 x_15_27
   + 64 x_15_28 + 65 x_15_29 + 72 x_15_30 + 87 x_15_31 + 61 x_15_33
   + 27 x_15_35 + 95 x_15_36 + 53 x_15_37 + 40 x_15_38 + 69 x_15_39
   + 67 x_15_40 + 83 x_15_41 + 48 x_15_44 + 15 x_15_45 + 33 x_15_47
   + 98 x_15_48 + 55 x_15_49 + 13 x_16_19 + 13 x_16_20 + 93 x_16_21
   + 55 x_16_22 + 19 x_16_26 + 36 x_16_28 + 40 x_16_31 + 61 x_16_32
   + 103 x_16_33 + 98 x_16_34 + 45 x_16_35 + 74 x_16_36 + 18 x_16_37
   + 100 x_16_39 + 100 x_16_40 + 86 x_16_41 + 28 x_16_43 + 76 x_16_44
   + 82 x_16_45 + 35 x_16_47 + 75 x_16_48 + 21 x_16_49 + 22 x_17_18
   + 124 x_17_19 + 26 x_17_21 + 69 x_17_22 + 99 x_17_23 + 40 x_17_24
   + 38 x_17_25 + 110 x_17_26 + 88 x_17_27 + 82 x_17_28 + 98 x_17_29
   + 101 x_17_31 + 90 x_17_32 + 13 x_17_33 + 93 x_17_35 + 77 x_17_36
   + 107 x_17_37 + 14 x_17_39 + 12 x_17_40 + 84 x_17_43 + 35 x_17_44
   + 67 x_17_45 + 68 x_17_46 + 83 x_17_47 + 81 x_17_48 + 90 x_17_49
   + 114 x_18_19 + 113 x_18_20 + 36 x_18_21 + 52 x_18_22 + 92 x_18_23
   + 18 x_18_24 + 17 x_18_25 + 96 x_18_26 + 86 x_18_29 + 12 x_18_30
   + 71 x_18_32 + 92 x_18_35 + 56 x_18_36 + 100 x_18_37 + 93 x_18_38
   + 15 x_18_40 + 27 x_18_41 + 73 x_18_43 + 31 x_18_44 + 75 x_18_45
   + 46 x_18_46 + 78 x_18_47 + 60 x_18_48 + 2 x_19_20 + 106 x_19_21
   + 67 x_19_22 + 102 x_19_24 + 103 x_19_25 + 24 x_19_26 + 61 x_19_27
   + 47 x_19_28 + 29 x_19_29 + 116 x_19_30 + 46 x_19_31 + 111 x_19_34
   + 39 x_19_38 + 112 x_19_39 + 113 x_19_40 + 98 x_19_41 + 103 x_19_42
   + 89 x_19_44 + 91 x_19_46 + 47 x_19_47 + 34 x_19_49 + 105 x_20_21
   + 65 x_20_22 + 32 x_20_23 + 101 x_20_24 + 22 x_20_26 + 59 x_20_27
   + 28 x_20_29 + 115 x_20_30 + 116 x_20_33 + 110 x_20_34 + 54 x_20_35
   + 82 x_20_36 + 26 x_20_37 + 40 x_20_38 + 112 x_20_40 + 97 x_20_41
   + 102 x_20_42 + 89 x_20_44 + 90 x_20_46 + 47 x_20_47 + 34 x_20_49
   + 77 x_21_23 + 46 x_21_24 + 95 x_21_26 + 81 x_21_27 + 69 x_21_28
   + 81 x_21_29 + 91 x_21_31 + 11 x_21_34 + 69 x_21_35 + 77 x_21_36
   + 75 x_21_38 + 24 x_21_39 + 21 x_21_40 + 53 x_21_41 + 66 x_21_43
   + 41 x_21_45 + 70 x_21_46 + 82 x_21_48 + 55 x_22_23 + 37 x_22_24
   + 38 x_22_25 + 46 x_22_26 + 20 x_22_27 + 38 x_22_29 + 58 x_22_30
   + 33 x_22_31 + 26 x_22_32 + 65 x_22_33 + 60 x_22_34 + 67 x_22_35
   + 60 x_22_38 + 55 x_22_39 + 56 x_22_40 + 37 x_22_42 + 32 x_22_43
   + 40 x_22_44 + 78 x_22_45 + 27 x_22_46 + 48 x_22_47 + 28 x_22_48
   + 36 x_22_49 + 84 x_23_24 + 85 x_23_25 + 36 x_23_26 + 37 x_23_28
   + 26 x_23_29 + 52 x_23_31 + 69 x_23_32 + 89 x_23_33 + 84 x_23_34
   + 24 x_23_35 + 78 x_23_36 + 9 x_23_37 + 88 x_23_39 + 88 x_23_40
   + 82 x_23_41 + 86 x_23_42 + 23 x_23_43 + 63 x_23_44 + 62 x_23_45
   + 20 x_23_49 + 53 x_24_27 + 28 x_24_30 + 68 x_24_31 + 53 x_24_32
   + 43 x_24_33 + 89 x_24_35 + 92 x_24_37 + 3 x_24_42 + 63 x_24_43
   + 34 x_24_44 + 81 x_24_45 + 72 x_24_47 + 69 x_24_49 + 84 x_25_26
   + 75 x_25_29 + 42 x_25_33 + 38 x_25_34 + 89 x_25_35 + 40 x_25_36
   + 87 x_25_38 + 27 x_25_39 + 29 x_25_40 + 10 x_25_41 + 4 x_25_42
   + 81 x_25_45 + 44 x_25_48 + 70 x_25_49 + 37 x_26_27 + 29 x_26_28
   + 15 x_26_29 + 100 x_26_30 + 22 x_26_31 + 104 x_26_33 + 60 x_26_36
   + 36 x_26_37 + 45 x_26_38 + 98 x_26_40 + 77 x_26_41 + 30 x_26_43
   + 76 x_26_44 + 69 x_26_46 + 46 x_26_47 + 25 x_26_49 + 36 x_27_29
   + 76 x_27_30 + 10 x_27_32 + 85 x_27_33 + 80 x_27_34 + 64 x_27_37
   + 66 x_27_38 + 45 x_27_41 + 51 x_27_42 + 38 x_27_43 + 60 x_27_44
   + 32 x_27_46 + 23 x_27_48 + 40 x_27_49 + 19 x_28_29 + 72 x_28_30
   + 24 x_28_31 + 33 x_28_32 + 76 x_28_33 + 70 x_28_34 + 41 x_28_36
   + 43 x_28_37 + 43 x_28_38 + 70 x_28_40 + 51 x_28_41 + 56 x_28_42
   + 15 x_28_43 + 49 x_28_44 + 74 x_28_45 + 35 x_28_47 + 43 x_28_48
   + 27 x_29_31 + 91 x_29_33 + 48 x_29_35 + 57 x_29_36 + 28 x_29_37
   + 34 x_29_38 + 85 x_29_39 + 69 x_29_41 + 74 x_29_42 + 32 x_29_47
   + 58 x_29_48 + 90 x_30_31 + 79 x_30_32 + 17 x_30_33 + 88 x_30_35
   + 66 x_30_36 + 91 x_30_38 + 4 x_30_39 + 5 x_30_40 + 37 x_30_41
   + 75 x_30_43 + 67 x_30_45 + 56 x_30_46 + 77 x_30_47 + 70 x_30_48
   + 23 x_31_32 + 97 x_31_33 + 91 x_31_34 + 73 x_31_35 + 54 x_31_37
   + 60 x_31_38 + 88 x_31_39 + 89 x_31_40 + 67 x_31_42 + 36 x_31_43
   + 98 x_31_45 + 49 x_31_46 + 56 x_31_47 + 39 x_31_48 + 34 x_31_49
   + 89 x_32_33 + 84 x_32_34 + 87 x_32_35 + 17 x_32_36 + 73 x_32_37
   + 77 x_32_39 + 79 x_32_40 + 45 x_32_41 + 48 x_32_43 + 66 x_32_44
   + 103 x_32_45 + 29 x_32_46 + 68 x_32_47 + 49 x_32_49 + 6 x_33_34
   + 78 x_33_36 + 98 x_33_37 + 87 x_33_38 + 14 x_33_40 + 51 x_33_41
   + 27 x_33_44 + 54 x_33_45 + 70 x_33_46 + 73 x_33_47 + 83 x_33_48
   + 82 x_33_49 + 13 x_34_39 + 11 x_34_40 + 47 x_34_41 + 43 x_34_42
   + 52 x_34_45 + 65 x_34_46 + 77 x_34_48 + 28 x_35_37 + 15 x_35_38
   + 85 x_35_39 + 84 x_35_40 + 91 x_35_42 + 39 x_35_43 + 61 x_35_44
   + 93 x_35_46 + 94 x_35_48 + 39 x_35_49 + 83 x_36_37 + 64 x_36_39
   + 30 x_36_41 + 36 x_36_42 + 58 x_36_44 + 101 x_36_45 + 73 x_36_47
   + 4 x_36_48 + 58 x_36_49 + 97 x_37_39 + 96 x_37_40 + 90 x_37_41
   + 94 x_37_42 + 72 x_37_44 + 69 x_37_45 + 88 x_37_46 + 85 x_37_48
   + 25 x_37_49 + 88 x_38_39 + 87 x_38_40 + 88 x_38_42 + 55 x_38_45
   + 87 x_38_46 + 15 x_38_47 + 86 x_38_48 + 2 x_39_40 + 31 x_39_42
   + 25 x_39_44 + 55 x_39_46 + 73 x_39_47 + 69 x_39_48 + 38 x_40_41
   + 33 x_40_42 + 72 x_40_43 + 24 x_40_44 + 62 x_40_45 + 57 x_40_46
   + 72 x_40_47 + 70 x_40_48 + 78 x_40_49 + 6 x_41_42 + 85 x_41_45
   + 19 x_41_46 + 72 x_41_47 + 33 x_41_48 + 66 x_41_49 + 64 x_42_43
   + 37 x_42_44 + 25 x_42_46 + 74 x_42_47 + 70 x_42_49 + 49 x_43_44
   + 20 x_43_47 + 57 x_43_48 + 7 x_43_49 + 47 x_44_45 + 53 x_44_46
   + 55 x_44_49 + 98 x_45_46 + 47 x_45_47 + 68 x_45_49 + 75 x_46_47
   + 15 x_46_48 + 63 x_46_49 + 75 x_47_48 + 925 Constant
Subject To
 c_0: y_18 = 1
 c_1_0: y_0 + y_10 + y_15 >= 1
 c_1_1: y_1 + y_6 + y_36 >= 1
 c_1_2: y_2 + y_7 + y_24 + y_25 + y_42 >= 1
 c_1_3: y_3 + y_36 + y_46 >= 1
 c_1_4: y_4 >= 1
 c_1_5: y_5 >= 1
 c_1_6: y_1 + y_6 + y_36 + y_48 >= 1
 c_1_7: y_2 + y_7 + y_24 + y_25 >= 1
 c_1_8: y_8 + y_17 + y_33 >= 1
 c_1_9: y_9 + y_21 + y_33 + y_34 >= 1
 c_1_10: y_0 + y_10 >= 1
 c_1_11: y_11 >= 1
 c_1_12: y_12 + y_45 >= 1
 c_1_13: y_13 + y_44 >= 1
 c_1_14: y_14 + y_27 + y_32 >= 1
 c_1_15: y_0 + y_15 >= 1
 c_1_16: y_16 >= 1
 c_1_17: y_8 + y_17 >= 1
 c_1_18: y_18 >= 1
 c_1_19: y_19 + y_20 >= 1
 c_1_20: y_19 + y_20 >= 1
 c_1_21: y_9 + y_21 >= 1
 c_1_22: y_22 >= 1
 c_1_23: y_23 + y_37 + y_38 >= 1
 c_1_24: y_2 + y_7 + y_24 + y_25 + y_41 + y_42 >= 1
 c_1_25: y_2 + y_7 + y_24 + y_25 + y_41 + y_42 >= 1
 c_1_26: y_26 >= 1
 c_1_27: y_14 + y_27 + y_32 >= 1
 c_1_28: y_28 >= 1
 c_1_29: y_29 + y_49 >= 1
 c_1_30: y_30 + y_39 + y_40 >= 1
 c_1_31: y_31 >= 1
 c_1_32: y_14 + y_27 + y_32 >= 1
 c_1_33: y_8 + y_9 + y_33 + y_34 >= 1
 c_1_34: y_9 + y_33 + y_34 >= 1
 c_1_35: y_35 >= 1
 c_1_36: y_1 + y_3 + y_6 + y_36 + y_48 >= 1
 c_1_37: y_23 + y_37 >= 1
 c_1_38: y_23 + y_38 >= 1
 c_1_39: y_30 + y_39 + y_40 >= 1
 c_1_40: y_30 + y_39 + y_40 >= 1
 c_1_41: y_24 + y_25 + y_41 + y_42 >= 1
 c_1_42: y_2 + y_24 + y_25 + y_41 + y_42 >= 1
 c_1_43: y_43 + y_49 >= 1
 c_1_44: y_13 + y_44 >= 1
 c_1_45: y_12 + y_45 >= 1
 c_1_46: y_3 + y_46 >= 1
 c_1_47: y_47 >= 1
 c_1_48: y_6 + y_36 + y_48 >= 1
 c_1_49: y_29 + y_43 + y_49 >= 1
 c_2_0: - 2 y_0 + x_0_1 + x_0_5 + x_0_6 + x_0_7 + x_0_8 + x_0_10 + x_0_12
   + x_0_13 + x_0_14 + x_0_15 + x_0_16 + x_0_17 + x_0_18 + x_0_19 + x_0_20
   + x_0_21 + x_0_22 + x_0_23 + x_0_24 + x_0_26 + x_0_27 + x_0_29 + x_0_30
   + x_0_32 + x_0_33 + x_0_34 + x_0_35 + x_0_36 + x_0_37 + x_0_38 + x_0_39
   + x_0_40 + x_0_42 + x_0_43 + x_0_44 + x_0_48 + x_0_49 = 0
 c_2_1: - 2 y_1 + x_0_1 + x_1_3 + x_1_4 + x_1_5 + x_1_6 + x_1_9 + x_1_12
   + x_1_14 + x_1_15 + x_1_18 + x_1_19 + x_1_22 + x_1_23 + x_1_24 + x_1_26
   + x_1_27 + x_1_28 + x_1_30 + x_1_32 + x_1_33 + x_1_34 + x_1_35 + x_1_36
   + x_1_38 + x_1_39 + x_1_40 + x_1_41 + x_1_43 + x_1_44 + x_1_46 + x_1_47
   + x_1_49 = 0
 c_2_2: - 2 y_2 + x_2_3 + x_2_5 + x_2_6 + x_2_7 + x_2_8 + x_2_9 + x_2_10
   + x_2_11 + x_2_12 + x_2_13 + x_2_14 + x_2_15 + x_2_17 + x_2_18 + x_2_19
   + x_2_20 + x_2_21 + x_2_22 + x_2_24 + x_2_26 + x_2_27 + x_2_29 + x_2_30
   + x_2_31 + x_2_33 + x_2_36 + x_2_37 + x_2_39 + x_2_40 + x_2_41 + x_2_42
   + x_2_43 + x_2_44 + x_2_45 + x_2_46 + x_2_47 + x_2_48 + x_2_49 = 0
 c_2_3: - 2 y_3 + x_1_3 + x_2_3 + x_3_5 + x_3_7 + x_3_10 + x_3_11 + x_3_12
   + x_3_13 + x_3_14 + x_3_15 + x_3_16 + x_3_17 + x_3_20 + x_3_21 + x_3_23
   + x_3_24 + x_3_25 + x_3_26 + x_3_27 + x_3_28 + x_3_29 + x_3_32 + x_3_34
   + x_3_35 + x_3_36 + x_3_37 + x_3_38 + x_3_39 + x_3_42 + x_3_43 + x_3_44
   + x_3_45 + x_3_46 + x_3_47 = 0
 c_2_4: - 2 y_4 + x_1_4 + x_4_5 + x_4_7 + x_4_10 + x_4_12 + x_4_13 + x_4_14
   + x_4_15 + x_4_16 + x_4_17 + x_4_19 + x_4_21 + x_4_22 + x_4_24 + x_4_25
   + x_4_27 + x_4_28 + x_4_29 + x_4_31 + x_4_32 + x_4_33 + x_4_34 + x_4_35
   + x_4_38 + x_4_40 + x_4_41 + x_4_42 + x_4_44 + x_4_45 + x_4_46 + x_4_47
   + x_4_48 + x_4_49 = 0
 c_2_5: - 2 y_5 + x_0_5 + x_1_5 + x_2_5 + x_3_5 + x_4_5 + x_5_6 + x_5_7
   + x_5_8 + x_5_9 + x_5_11 + x_5_14 + x_5_15 + x_5_16 + x_5_17 + x_5_18
   + x_5_22 + x_5_24 + x_5_26 + x_5_27 + x_5_30 + x_5_31 + x_5_33 + x_5_34
   + x_5_37 + x_5_39 + x_5_40 + x_5_41 + x_5_42 + x_5_44 + x_5_45 + x_5_46
   + x_5_47 + x_5_49 = 0
 c_2_6: - 2 y_6 + x_0_6 + x_1_6 + x_2_6 + x_5_6 + x_6_7 + x_6_9 + x_6_10
   + x_6_13 + x_6_14 + x_6_15 + x_6_17 + x_6_18 + x_6_19 + x_6_20 + x_6_22
   + x_6_24 + x_6_26 + x_6_27 + x_6_28 + x_6_29 + x_6_31 + x_6_32 + x_6_33
   + x_6_36 + x_6_37 + x_6_38 + x_6_41 + x_6_42 + x_6_43 + x_6_44 + x_6_45
   + x_6_46 + x_6_47 + x_6_48 + x_6_49 = 0
 c_2_7: - 2 y_7 + x_0_7 + x_2_7 + x_3_7 + x_4_7 + x_5_7 + x_6_7 + x_7_9
   + x_7_13 + x_7_14 + x_7_15 + x_7_17 + x_7_19 + x_7_23 + x_7_24 + x_7_26
   + x_7_27 + x_7_29 + x_7_30 + x_7_31 + x_7_32 + x_7_33 + x_7_34 + x_7_35
   + x_7_36 + x_7_37 + x_7_39 + x_7_40 + x_7_42 + x_7_43 + x_7_44 + x_7_47
   + x_7_48 + x_7_49 = 0
 c_2_8: - 2 y_8 + x_0_8 + x_2_8 + x_5_8 + x_8_9 + x_8_11 + x_8_12 + x_8_13
   + x_8_14 + x_8_17 + x_8_19 + x_8_20 + x_8_24 + x_8_26 + x_8_27 + x_8_29
   + x_8_30 + x_8_31 + x_8_32 + x_8_37 + x_8_39 + x_8_40 + x_8_41 + x_8_43
   + x_8_44 + x_8_45 + x_8_48 = 0
 c_2_9: - 2 y_9 + x_1_9 + x_2_9 + x_5_9 + x_6_9 + x_7_9 + x_8_9 + x_9_12
   + x_9_15 + x_9_16 + x_9_17 + x_9_18 + x_9_19 + x_9_20 + x_9_22 + x_9_24
   + x_9_26 + x_9_27 + x_9_30 + x_9_33 + x_9_34 + x_9_36 + x_9_37 + x_9_38
   + x_9_39 + x_9_42 + x_9_43 + x_9_44 + x_9_45 + x_9_46 + x_9_47 + x_9_48
   + x_9_49 = 0
 c_2_10: - 2 y_10 + x_0_10 + x_2_10 + x_3_10 + x_4_10 + x_6_10 + x_10_11
   + x_10_14 + x_10_16 + x_10_18 + x_10_19 + x_10_20 + x_10_21 + x_10_23
   + x_10_24 + x_10_25 + x_10_26 + x_10_27 + x_10_28 + x_10_29 + x_10_30
   + x_10_31 + x_10_33 + x_10_34 + x_10_37 + x_10_38 + x_10_39 + x_10_41
   + x_10_43 + x_10_44 + x_10_45 + x_10_46 + x_10_48 = 0
 c_2_11: - 2 y_11 + x_2_11 + x_3_11 + x_5_11 + x_8_11 + x_10_11 + x_11_12
   + x_11_13 + x_11_15 + x_11_16 + x_11_17 + x_11_18 + x_11_19 + x_11_20
   + x_11_21 + x_11_24 + x_11_25 + x_11_26 + x_11_27 + x_11_28 + x_11_30
   + x_11_31 + x_11_33 + x_11_34 + x_11_35 + x_11_36 + x_11_37 + x_11_38
   + x_11_39 + x_11_40 + x_11_41 + x_11_42 + x_11_43 + x_11_44 + x_11_46
   + x_11_47 + x_11_48 + x_11_49 = 0
 c_2_12: - 2 y_12 + x_0_12 + x_1_12 + x_2_12 + x_3_12 + x_4_12 + x_8_12
   + x_9_12 + x_11_12 + x_12_14 + x_12_15 + x_12_17 + x_12_18 + x_12_19
   + x_12_20 + x_12_21 + x_12_22 + x_12_23 + x_12_24 + x_12_25 + x_12_26
   + x_12_27 + x_12_29 + x_12_30 + x_12_31 + x_12_33 + x_12_34 + x_12_35
   + x_12_37 + x_12_38 + x_12_40 + x_12_41 + x_12_42 + x_12_43 + x_12_44
   + x_12_47 + x_12_48 = 0
 c_2_13: - 2 y_13 + x_0_13 + x_2_13 + x_3_13 + x_4_13 + x_6_13 + x_7_13
   + x_8_13 + x_11_13 + x_13_14 + x_13_15 + x_13_18 + x_13_22 + x_13_23
   + x_13_24 + x_13_25 + x_13_26 + x_13_27 + x_13_28 + x_13_30 + x_13_31
   + x_13_33 + x_13_34 + x_13_35 + x_13_36 + x_13_37 + x_13_39 + x_13_40
   + x_13_41 + x_13_42 + x_13_45 + x_13_46 + x_13_47 + x_13_48 = 0
 c_2_14: - 2 y_14 + x_0_14 + x_1_14 + x_2_14 + x_3_14 + x_4_14 + x_5_14
   + x_6_14 + x_7_14 + x_8_14 + x_10_14 + x_12_14 + x_13_14 + x_14_15
   + x_14_16 + x_14_17 + x_14_23 + x_14_24 + x_14_25 + x_14_26 + x_14_28
   + x_14_32 + x_14_34 + x_14_35 + x_14_36 + x_14_38 + x_14_39 + x_14_41
   + x_14_43 + x_14_45 + x_14_48 + x_14_49 = 0
 c_2_15: - 2 y_15 + x_0_15 + x_1_15 + x_2_15 + x_3_15 + x_4_15 + x_5_15
   + x_6_15 + x_7_15 + x_9_15 + x_11_15 + x_12_15 + x_13_15 + x_14_15
   + x_15_16 + x_15_17 + x_15_19 + x_15_20 + x_15_21 + x_15_22 + x_15_23
   + x_15_24 + x_15_27 + x_15_28 + x_15_29 + x_15_30 + x_15_31 + x_15_33
   + x_15_35 + x_15_36 + x_15_37 + x_15_38 + x_15_39 + x_15_40 + x_15_41
   + x_15_44 + x_15_45 + x_15_47 + x_15_48 + x_15_49 = 0
 c_2_16: - 2 y_16 + x_0_16 + x_3_16 + x_4_16 + x_5_16 + x_9_16 + x_10_16
   + x_11_16 + x_14_16 + x_15_16 + x_16_19 + x_16_20 + x_16_21 + x_16_22
   + x_16_26 + x_16_28 + x_16_31 + x_16_32 + x_16_33 + x_16_34 + x_16_35
   + x_16_36 + x_16_37 + x_16_39 + x_16_40 + x_16_41 + x_16_43 + x_16_44
   + x_16_45 + x_16_47 + x_16_48 + x_16_49 = 0
 c_2_17: - 2 y_17 + x_0_17 + x_2_17 + x_3_17 + x_4_17 + x_5_17 + x_6_17
   + x_7_17 + x_8_17 + x_9_17 + x_11_17 + x_12_17 + x_14_17 + x_15_17
   + x_17_18 + x_17_19 + x_17_21 + x_17_22 + x_17_23 + x_17_24 + x_17_25
   + x_17_26 + x_17_27 + x_17_28 + x_17_29 + x_17_31 + x_17_32 + x_17_33
   + x_17_35 + x_17_36 + x_17_37 + x_17_39 + x_17_40 + x_17_43 + x_17_44
   + x_17_45 + x_17_46 + x_17_47 + x_17_48 + x_17_49 = 0
 c_2_18: - 2 y_18 + x_0_18 + x_1_18 + x_2_18 + x_5_18 + x_6_18 + x_9_18
   + x_10_18 + x_11_18 + x_12_18 + x_13_18 + x_17_18 + x_18_19 + x_18_20
   + x_18_21 + x_18_22 + x_18_23 + x_18_24 + x_18_25 + x_18_26 + x_18_29
   + x_18_30 + x_18_32 + x_18_35 + x_18_36 + x_18_37 + x_18_38 + x_18_40
   + x_18_41 + x_18_43 + x_18_44 + x_18_45 + x_18_46 + x_18_47 + x_18_48
   = 0
 c_2_19: - 2 y_19 + x_0_19 + x_1_19 + x_2_19 + x_4_19 + x_6_19 + x_7_19
   + x_8_19 + x_9_19 + x_10_19 + x_11_19 + x_12_19 + x_15_19 + x_16_19
   + x_17_19 + x_18_19 + x_19_20 + x_19_21 + x_19_22 + x_19_24 + x_19_25
   + x_19_26 + x_19_27 + x_19_28 + x_19_29 + x_19_30 + x_19_31 + x_19_34
   + x_19_38 + x_19_39 + x_19_40 + x_19_41 + x_19_42 + x_19_44 + x_19_46
   + x_19_47 + x_19_49 = 0
 c_2_20: - 2 y_20 + x_0_20 + x_2_20 + x_3_20 + x_6_20 + x_8_20 + x_9_20
   + x_10_20 + x_11_20 + x_12_20 + x_15_20 + x_16_20 + x_18_20 + x_19_20
   + x_20_21 + x_20_22 + x_20_23 + x_20_24 + x_20_26 + x_20_27 + x_20_29
   + x_20_30 + x_20_33 + x_20_34 + x_20_35 + x_20_36 + x_20_37 + x_20_38
   + x_20_40 + x_20_41 + x_20_42 + x_20_44 + x_20_46 + x_20_47 + x_20_49
   = 0
 c_2_21: - 2 y_21 + x_0_21 + x_2_21 + x_3_21 + x_4_21 + x_10_21 + x_11_21
   + x_12_21 + x_15_21 + x_16_21 + x_17_21 + x_18_21 + x_19_21 + x_20_21
   + x_21_23 + x_21_24 + x_21_26 + x_21_27 + x_21_28 + x_21_29 + x_21_31
   + x_21_34 + x_21_35 + x_21_36 + x_21_38 + x_21_39 + x_21_40 + x_21_41
   + x_21_43 + x_21_45 + x_21_46 + x_21_48 = 0
 c_2_22: - 2 y_22 + x_0_22 + x_1_22 + x_2_22 + x_4_22 + x_5_22 + x_6_22
   + x_9_22 + x_12_22 + x_13_22 + x_15_22 + x_16_22 + x_17_22 + x_18_22
   + x_19_22 + x_20_22 + x_22_23 + x_22_24 + x_22_25 + x_22_26 + x_22_27
   + x_22_29 + x_22_30 + x_22_31 + x_22_32 + x_22_33 + x_22_34 + x_22_35
   + x_22_38 + x_22_39 + x_22_40 + x_22_42 + x_22_43 + x_22_44 + x_22_45
   + x_22_46 + x_22_47 + x_22_48 + x_22_49 = 0
 c_2_23: - 2 y_23 + x_0_23 + x_1_23 + x_3_23 + x_7_23 + x_10_23 + x_12_23
   + x_13_23 + x_14_23 + x_15_23 + x_17_23 + x_18_23 + x_20_23 + x_21_23
   + x_22_23 + x_23_24 + x_23_25 + x_23_26 + x_23_28 + x_23_29 + x_23_31
   + x_23_32 + x_23_33 + x_23_34 + x_23_35 + x_23_36 + x_23_37 + x_23_39
   + x_23_40 + x_23_41 + x_23_42 + x_23_43 + x_23_44 + x_23_45 + x_23_49
   = 0
 c_2_24: - 2 y_24 + x_0_24 + x_1_24 + x_2_24 + x_3_24 + x_4_24 + x_5_24
   + x_6_24 + x_7_24 + x_8_24 + x_9_24 + x_10_24 + x_11_24 + x_12_24
   + x_13_24 + x_14_24 + x_15_24 + x_17_24 + x_18_24 + x_19_24 + x_20_24
   + x_21_24 + x_22_24 + x_23_24 + x_24_27 + x_24_30 + x_24_31 + x_24_32
   + x_24_33 + x_24_35 + x_24_37 + x_24_42 + x_24_43 + x_24_44 + x_24_45
   + x_24_47 + x_24_49 = 0
 c_2_25: - 2 y_25 + x_3_25 + x_4_25 + x_10_25 + x_11_25 + x_12_25 + x_13_25
   + x_14_25 + x_17_25 + x_18_25 + x_19_25 + x_22_25 + x_23_25 + x_25_26
   + x_25_29 + x_25_33 + x_25_34 + x_25_35 + x_25_36 + x_25_38 + x_25_39
   + x_25_40 + x_25_41 + x_25_42 + x_25_45 + x_25_48 + x_25_49 = 0
 c_2_26: - 2 y_26 + x_0_26 + x_1_26 + x_2_26 + x_3_26 + x_5_26 + x_6_26
   + x_7_26 + x_8_26 + x_9_26 + x_10_26 + x_11_26 + x_12_26 + x_13_26
   + x_14_26 + x_16_26 + x_17_26 + x_18_26 + x_19_26 + x_20_26 + x_21_26
   + x_22_26 + x_23_26 + x_25_26 + x_26_27 + x_26_28 + x_26_29 + x_26_30
   + x_26_31 + x_26_33 + x_26_36 + x_26_37 + x_26_38 + x_26_40 + x_26_41
   + x_26_43 + x_26_44 + x_26_46 + x_26_47 + x_26_49 = 0
 c_2_27: - 2 y_27 + x_0_27 + x_1_27 + x_2_27 + x_3_27 + x_4_27 + x_5_27
   + x_6_27 + x_7_27 + x_8_27 + x_9_27 + x_10_27 + x_11_27 + x_12_27
   + x_13_27 + x_15_27 + x_17_27 + x_19_27 + x_20_27 + x_21_27 + x_22_27
   + x_24_27 + x_26_27 + x_27_29 + x_27_30 + x_27_32 + x_27_33 + x_27_34
   + x_27_37 + x_27_38 + x_27_41 + x_27_42 + x_27_43 + x_27_44 + x_27_46
   + x_27_48 + x_27_49 = 0
 c_2_28: - 2 y_28 + x_1_28 + x_3_28 + x_4_28 + x_6_28 + x_10_28 + x_11_28
   + x_13_28 + x_14_28 + x_15_28 + x_16_28 + x_17_28 + x_19_28 + x_21_28
   + x_23_28 + x_26_28 + x_28_29 + x_28_30 + x_28_31 + x_28_32 + x_28_33
   + x_28_34 + x_28_36 + x_28_37 + x_28_38 + x_28_40 + x_28_41 + x_28_42
   + x_28_43 + x_28_44 + x_28_45 + x_28_47 + x_28_48 = 0
 c_2_29: - 2 y_29 + x_0_29 + x_2_29 + x_3_29 + x_4_29 + x_6_29 + x_7_29
   + x_8_29 + x_10_29 + x_12_29 + x_15_29 + x_17_29 + x_18_29 + x_19_29
   + x_20_29 + x_21_29 + x_22_29 + x_23_29 + x_25_29 + x_26_29 + x_27_29
   + x_28_29 + x_29_31 + x_29_33 + x_29_35 + x_29_36 + x_29_37 + x_29_38
   + x_29_39 + x_29_41 + x_29_42 + x_29_47 + x_29_48 = 0
 c_2_30: - 2 y_30 + x_0_30 + x_1_30 + x_2_30 + x_5_30 + x_7_30 + x_8_30
   + x_9_30 + x_10_30 + x_11_30 + x_12_30 + x_13_30 + x_15_30 + x_18_30
   + x_19_30 + x_20_30 + x_22_30 + x_24_30 + x_26_30 + x_27_30 + x_28_30
   + x_30_31 + x_30_32 + x_30_33 + x_30_35 + x_30_36 + x_30_38 + x_30_39
   + x_30_40 + x_30_41 + x_30_43 + x_30_45 + x_30_46 + x_30_47 + x_30_48
   = 0
 c_2_31: - 2 y_31 + x_2_31 + x_4_31 + x_5_31 + x_6_31 + x_7_31 + x_8_31
   + x_10_31 + x_11_31 + x_12_31 + x_13_31 + x_15_31 + x_16_31 + x_17_31
   + x_19_31 + x_21_31 + x_22_31 + x_23_31 + x_24_31 + x_26_31 + x_28_31
   + x_29_31 + x_30_31 + x_31_32 + x_31_33 + x_31_34 + x_31_35 + x_31_37
   + x_31_38 + x_31_39 + x_31_40 + x_31_42 + x_31_43 + x_31_45 + x_31_46
   + x_31_47 + x_31_48 + x_31_49 = 0
 c_2_32: - 2 y_32 + x_0_32 + x_1_32 + x_3_32 + x_4_32 + x_6_32 + x_7_32
   + x_8_32 + x_14_32 + x_16_32 + x_17_32 + x_18_32 + x_22_32 + x_23_32
   + x_24_32 + x_27_32 + x_28_32 + x_30_32 + x_31_32 + x_32_33 + x_32_34
   + x_32_35 + x_32_36 + x_32_37 + x_32_39 + x_32_40 + x_32_41 + x_32_43
   + x_32_44 + x_32_45 + x_32_46 + x_32_47 + x_32_49 = 0
 c_2_33: - 2 y_33 + x_0_33 + x_1_33 + x_2_33 + x_4_33 + x_5_33 + x_6_33
   + x_7_33 + x_9_33 + x_10_33 + x_11_33 + x_12_33 + x_13_33 + x_15_33
   + x_16_33 + x_17_33 + x_20_33 + x_22_33 + x_23_33 + x_24_33 + x_25_33
   + x_26_33 + x_27_33 + x_28_33 + x_29_33 + x_30_33 + x_31_33 + x_32_33
   + x_33_34 + x_33_36 + x_33_37 + x_33_38 + x_33_40 + x_33_41 + x_33_44
   + x_33_45 + x_33_46 + x_33_47 + x_33_48 + x_33_49 = 0
 c_2_34: - 2 y_34 + x_0_34 + x_1_34 + x_3_34 + x_4_34 + x_5_34 + x_7_34
   + x_9_34 + x_10_34 + x_11_34 + x_12_34 + x_13_34 + x_14_34 + x_16_34
   + x_19_34 + x_20_34 + x_21_34 + x_22_34 + x_23_34 + x_25_34 + x_27_34
   + x_28_34 + x_31_34 + x_32_34 + x_33_34 + x_34_39 + x_34_40 + x_34_41
   + x_34_42 + x_34_45 + x_34_46 + x_34_48 = 0
 c_2_35: - 2 y_35 + x_0_35 + x_1_35 + x_3_35 + x_4_35 + x_7_35 + x_11_35
   + x_12_35 + x_13_35 + x_14_35 + x_15_35 + x_16_35 + x_17_35 + x_18_35
   + x_20_35 + x_21_35 + x_22_35 + x_23_35 + x_24_35 + x_25_35 + x_29_35
   + x_30_35 + x_31_35 + x_32_35 + x_35_37 + x_35_38 + x_35_39 + x_35_40
   + x_35_42 + x_35_43 + x_35_44 + x_35_46 + x_35_48 + x_35_49 = 0
 c_2_36: - 2 y_36 + x_0_36 + x_1_36 + x_2_36 + x_3_36 + x_6_36 + x_7_36
   + x_9_36 + x_11_36 + x_13_36 + x_14_36 + x_15_36 + x_16_36 + x_17_36
   + x_18_36 + x_20_36 + x_21_36 + x_23_36 + x_25_36 + x_26_36 + x_28_36
   + x_29_36 + x_30_36 + x_32_36 + x_33_36 + x_36_37 + x_36_39 + x_36_41
   + x_36_42 + x_36_44 + x_36_45 + x_36_47 + x_36_48 + x_36_49 = 0
 c_2_37: - 2 y_37 + x_0_37 + x_2_37 + x_3_37 + x_5_37 + x_6_37 + x_7_37
   + x_8_37 + x_9_37 + x_10_37 + x_11_37 + x_12_37 + x_13_37 + x_15_37
   + x_16_37 + x_17_37 + x_18_37 + x_20_37 + x_23_37 + x_24_37 + x_26_37
   + x_27_37 + x_28_37 + x_29_37 + x_31_37 + x_32_37 + x_33_37 + x_35_37
   + x_36_37 + x_37_39 + x_37_40 + x_37_41 + x_37_42 + x_37_44 + x_37_45
   + x_37_46 + x_37_48 + x_37_49 = 0
 c_2_38: - 2 y_38 + x_0_38 + x_1_38 + x_3_38 + x_4_38 + x_6_38 + x_9_38
   + x_10_38 + x_11_38 + x_12_38 + x_14_38 + x_15_38 + x_18_38 + x_19_38
   + x_20_38 + x_21_38 + x_22_38 + x_25_38 + x_26_38 + x_27_38 + x_28_38
   + x_29_38 + x_30_38 + x_31_38 + x_33_38 + x_35_38 + x_38_39 + x_38_40
   + x_38_42 + x_38_45 + x_38_46 + x_38_47 + x_38_48 = 0
 c_2_39: - 2 y_39 + x_0_39 + x_1_39 + x_2_39 + x_3_39 + x_5_39 + x_7_39
   + x_8_39 + x_9_39 + x_10_39 + x_11_39 + x_13_39 + x_14_39 + x_15_39
   + x_16_39 + x_17_39 + x_19_39 + x_21_39 + x_22_39 + x_23_39 + x_25_39
   + x_29_39 + x_30_39 + x_31_39 + x_32_39 + x_34_39 + x_35_39 + x_36_39
   + x_37_39 + x_38_39 + x_39_40 + x_39_42 + x_39_44 + x_39_46 + x_39_47
   + x_39_48 = 0
 c_2_40: - 2 y_40 + x_0_40 + x_1_40 + x_2_40 + x_4_40 + x_5_40 + x_7_40
   + x_8_40 + x_11_40 + x_12_40 + x_13_40 + x_15_40 + x_16_40 + x_17_40
   + x_18_40 + x_19_40 + x_20_40 + x_21_40 + x_22_40 + x_23_40 + x_25_40
   + x_26_40 + x_28_40 + x_30_40 + x_31_40 + x_32_40 + x_33_40 + x_34_40
   + x_35_40 + x_37_40 + x_38_40 + x_39_40 + x_40_41 + x_40_42 + x_40_43
   + x_40_44 + x_40_45 + x_40_46 + x_40_47 + x_40_48 + x_40_49 = 0
 c_2_41: - 2 y_41 + x_1_41 + x_2_41 + x_4_41 + x_5_41 + x_6_41 + x_8_41
   + x_10_41 + x_11_41 + x_12_41 + x_13_41 + x_14_41 + x_15_41 + x_16_41
   + x_18_41 + x_19_41 + x_20_41 + x_21_41 + x_23_41 + x_25_41 + x_26_41
   + x_27_41 + x_28_41 + x_29_41 + x_30_41 + x_32_41 + x_33_41 + x_34_41
   + x_36_41 + x_37_41 + x_40_41 + x_41_42 + x_41_45 + x_41_46 + x_41_47
   + x_41_48 + x_41_49 = 0
 c_2_42: - 2 y_42 + x_0_42 + x_2_42 + x_3_42 + x_4_42 + x_5_42 + x_6_42
   + x_7_42 + x_9_42 + x_11_42 + x_12_42 + x_13_42 + x_19_42 + x_20_42
   + x_22_42 + x_23_42 + x_24_42 + x_25_42 + x_27_42 + x_28_42 + x_29_42
   + x_31_42 + x_34_42 + x_35_42 + x_36_42 + x_37_42 + x_38_42 + x_39_42
   + x_40_42 + x_41_42 + x_42_43 + x_42_44 + x_42_46 + x_42_47 + x_42_49
   = 0
 c_2_43: - 2 y_43 + x_0_43 + x_1_43 + x_2_43 + x_3_43 + x_6_43 + x_7_43
   + x_8_43 + x_9_43 + x_10_43 + x_11_43 + x_12_43 + x_14_43 + x_16_43
   + x_17_43 + x_18_43 + x_21_43 + x_22_43 + x_23_43 + x_24_43 + x_26_43
   + x_27_43 + x_28_43 + x_30_43 + x_31_43 + x_32_43 + x_35_43 + x_40_43
   + x_42_43 + x_43_44 + x_43_47 + x_43_48 + x_43_49 = 0
 c_2_44: - 2 y_44 + x_0_44 + x_1_44 + x_2_44 + x_3_44 + x_4_44 + x_5_44
   + x_6_44 + x_7_44 + x_8_44 + x_9_44 + x_10_44 + x_11_44 + x_12_44
   + x_15_44 + x_16_44 + x_17_44 + x_18_44 + x_19_44 + x_20_44 + x_22_44
   + x_23_44 + x_24_44 + x_26_44 + x_27_44 + x_28_44 + x_32_44 + x_33_44
   + x_35_44 + x_36_44 + x_37_44 + x_39_44 + x_40_44 + x_42_44 + x_43_44
   + x_44_45 + x_44_46 + x_44_49 = 0
 c_2_45: - 2 y_45 + x_2_45 + x_3_45 + x_4_45 + x_5_45 + x_6_45 + x_8_45
   + x_9_45 + x_10_45 + x_13_45 + x_14_45 + x_15_45 + x_16_45 + x_17_45
   + x_18_45 + x_21_45 + x_22_45 + x_23_45 + x_24_45 + x_25_45 + x_28_45
   + x_30_45 + x_31_45 + x_32_45 + x_33_45 + x_34_45 + x_36_45 + x_37_45
   + x_38_45 + x_40_45 + x_41_45 + x_44_45 + x_45_46 + x_45_47 + x_45_49
   = 0
 c_2_46: - 2 y_46 + x_1_46 + x_2_46 + x_3_46 + x_4_46 + x_5_46 + x_6_46
   + x_9_46 + x_10_46 + x_11_46 + x_13_46 + x_17_46 + x_18_46 + x_19_46
   + x_20_46 + x_21_46 + x_22_46 + x_26_46 + x_27_46 + x_30_46 + x_31_46
   + x_32_46 + x_33_46 + x_34_46 + x_35_46 + x_37_46 + x_38_46 + x_39_46
   + x_40_46 + x_41_46 + x_42_46 + x_44_46 + x_45_46 + x_46_47 + x_46_48
   + x_46_49 = 0
 c_2_47: - 2 y_47 + x_1_47 + x_2_47 + x_3_47 + x_4_47 + x_5_47 + x_6_47
   + x_7_47 + x_9_47 + x_11_47 + x_12_47 + x_13_47 + x_15_47 + x_16_47
   + x_17_47 + x_18_47 + x_19_47 + x_20_47 + x_22_47 + x_24_47 + x_26_47
   + x_28_47 + x_29_47 + x_30_47 + x_31_47 + x_32_47 + x_33_47 + x_36_47
   + x_38_47 + x_39_47 + x_40_47 + x_41_47 + x_42_47 + x_43_47 + x_45_47
   + x_46_47 + x_47_48 = 0
 c_2_48: - 2 y_48 + x_0_48 + x_2_48 + x_4_48 + x_6_48 + x_7_48 + x_8_48
   + x_9_48 + x_10_48 + x_11_48 + x_12_48 + x_13_48 + x_14_48 + x_15_48
   + x_16_48 + x_17_48 + x_18_48 + x_21_48 + x_22_48 + x_25_48 + x_27_48
   + x_28_48 + x_29_48 + x_30_48 + x_31_48 + x_33_48 + x_34_48 + x_35_48
   + x_36_48 + x_37_48 + x_38_48 + x_39_48 + x_40_48 + x_41_48 + x_43_48
   + x_46_48 + x_47_48 = 0
 c_2_49: - 2 y_49 + x_0_49 + x_1_49 + x_2_49 + x_4_49 + x_5_49 + x_6_49
   + x_7_49 + x_9_49 + x_11_49 + x_14_49 + x_15_49 + x_16_49 + x_17_49
   + x_19_49 + x_20_49 + x_22_49 + x_23_49 + x_24_49 + x_25_49 + x_26_49
   + x_27_49 + x_31_49 + x_32_49 + x_33_49 + x_35_49 + x_36_49 + x_37_49
   + x_40_49 + x_41_49 + x_42_49 + x_43_49 + x_44_49 + x_45_49 + x_46_49
   = 0
Bounds
 Constant = 1
Binaries
 y_0 y_1 y_2 y_3 y_4 y_5 y_6 y_7 y_8 y_9 y_10 y_11 y_12 y_13 y_14 y_15 y_16
 y_17 y_18 y_19 y_20 y_21 y_22 y_23 y_24 y_25 y_26 y_27 y_28 y_29 y_30 y_31
 y_32 y_33 y_34 y_35 y_36 y_37 y_38 y_39 y_40 y_41 y_42 y_43 y_44 y_45 y_46
 y_47 y_48 y_49 x_0_1 x_0_5 x_0_6 x_0_7 x_0_8 x_0_10 x_0_12 x_0_13 x_0_14
 x_0_15 x_0_16 x_0_17 x_0_18 x_0_19 x_0_20 x_0_21 x_0_22 x_0_23 x_0_24
 x_0_26 x_0_27 x_0_29 x_0_30 x_0_32 x_0_33 x_0_34 x_0_35 x_0_36 x_0_37
 x_0_38 x_0_39 x_0_40 x_0_42 x_0_43 x_0_44 x_0_48 x_0_49 x_1_3 x_1_4 x_1_5
 x_1_6 x_1_9 x_1_12 x_1_14 x_1_15 x_1_18 x_1_19 x_1_22 x_1_23 x_1_24 x_1_26
 x_1_27 x_1_28 x_1_30 x_1_32 x_1_33 x_1_34 x_1_35 x_1_36 x_1_38 x_1_39
 x_1_40 x_1_41 x_1_43 x_1_44 x_1_46 x_1_47 x_1_49 x_2_3 x_2_5 x_2_6 x_2_7
 x_2_8 x_2_9 x_2_10 x_2_11 x_2_12 x_2_13 x_2_14 x_2_15 x_2_17 x_2_18 x_2_19
 x_2_20 x_2_21 x_2_22 x_2_24 x_2_26 x_2_27 x_2_29 x_2_30 x_2_31 x_2_33
 x_2_36 x_2_37 x_2_39 x_2_40 x_2_41 x_2_42 x_2_43 x_2_44 x_2_45 x_2_46
 x_2_47 x_2_48 x_2_49 x_3_5 x_3_7 x_3_10 x_3_11 x_3_12 x_3_13 x_3_14 x_3_15
 x_3_16 x_3_17 x_3_20 x_3_21 x_3_23 x_3_24 x_3_25 x_3_26 x_3_27 x_3_28
 x_3_29 x_3_32 x_3_34 x_3_35 x_3_36 x_3_37 x_3_38 x_3_39 x_3_42 x_3_43
 x_3_44 x_3_45 x_3_46 x_3_47 x_4_5 x_4_7 x_4_10 x_4_12 x_4_13 x_4_14 x_4_15
 x_4_16 x_4_17 x_4_19 x_4_21 x_4_22 x_4_24 x_4_25 x_4_27 x_4_28 x_4_29
 x_4_31 x_4_32 x_4_33 x_4_34 x_4_35 x_4_38 x_4_40 x_4_41 x_4_42 x_4_44
 x_4_45 x_4_46 x_4_47 x_4_48 x_4_49 x_5_6 x_5_7 x_5_8 x_5_9 x_5_11 x_5_14
 x_5_15 x_5_16 x_5_17 x_5_18 x_5_22 x_5_24 x_5_26 x_5_27 x_5_30 x_5_31
 x_5_33 x_5_34 x_5_37 x_5_39 x_5_40 x_5_41 x_5_42 x_5_44 x_5_45 x_5_46
 x_5_47 x_5_49 x_6_7 x_6_9 x_6_10 x_6_13 x_6_14 x_6_15 x_6_17 x_6_18 x_6_19
 x_6_20 x_6_22 x_6_24 x_6_26 x_6_27 x_6_28 x_6_29 x_6_31 x_6_32 x_6_33
 x_6_36 x_6_37 x_6_38 x_6_41 x_6_42 x_6_43 x_6_44 x_6_45 x_6_46 x_6_47
 x_6_48 x_6_49 x_7_9 x_7_13 x_7_14 x_7_15 x_7_17 x_7_19 x_7_23 x_7_24
 x_7_26 x_7_27 x_7_29 x_7_30 x_7_31 x_7_32 x_7_33 x_7_34 x_7_35 x_7_36
 x_7_37 x_7_39 x_7_40 x_7_42 x_7_43 x_7_44 x_7_47 x_7_48 x_7_49 x_8_9
 x_8_11 x_8_12 x_8_13 x_8_14 x_8_17 x_8_19 x_8_20 x_8_24 x_8_26 x_8_27
 x_8_29 x_8_30 x_8_31 x_8_32 x_8_37 x_8_39 x_8_40 x_8_41 x_8_43 x_8_44
 x_8_45 x_8_48 x_9_12 x_9_15 x_9_16 x_9_17 x_9_18 x_9_19 x_9_20 x_9_22
 x_9_24 x_9_26 x_9_27 x_9_30 x_9_33 x_9_34 x_9_36 x_9_37 x_9_38 x_9_39
 x_9_42 x_9_43 x_9_44 x_9_45 x_9_46 x_9_47 x_9_48 x_9_49 x_10_11 x_10_14
 x_10_16 x_10_18 x_10_19 x_10_20 x_10_21 x_10_23 x_10_24 x_10_25 x_10_26
 x_10_27 x_10_28 x_10_29 x_10_30 x_10_31 x_10_33 x_10_34 x_10_37 x_10_38
 x_10_39 x_10_41 x_10_43 x_10_44 x_10_45 x_10_46 x_10_48 x_11_12 x_11_13
 x_11_15 x_11_16 x_11_17 x_11_18 x_11_19 x_11_20 x_11_21 x_11_24 x_11_25
 x_11_26 x_11_27 x_11_28 x_11_30 x_11_31 x_11_33 x_11_34 x_11_35 x_11_36
 x_11_37 x_11_38 x_11_39 x_11_40 x_11_41 x_11_42 x_11_43 x_11_44 x_11_46
 x_11_47 x_11_48 x_11_49 x_12_14 x_12_15 x_12_17 x_12_18 x_12_19 x_12_20
 x_12_21 x_12_22 x_12_23 x_12_24 x_12_25 x_12_26 x_12_27 x_12_29 x_12_30
 x_12_31 x_12_33 x_12_34 x_12_35 x_12_37 x_12_38 x_12_40 x_12_41 x_12_42
 x_12_43 x_12_44 x_12_47 x_12_48 x_13_14 x_13_15 x_13_18 x_13_22 x_13_23
 x_13_24 x_13_25 x_13_26 x_13_27 x_13_28 x_13_30 x_13_31 x_13_33 x_13_34
 x_13_35 x_13_36 x_13_37 x_13_39 x_13_40 x_13_41 x_13_42 x_13_45 x_13_46
 x_13_47 x_13_48 x_14_15 x_14_16 x_14_17 x_14_23 x_14_24 x_14_25 x_14_26
 x_14_28 x_14_32 x_14_34 x_14_35 x_14_36 x_14_38 x_14_39 x_14_41 x_14_43
 x_14_45 x_14_48 x_14_49 x_15_16 x_15_17 x_15_19 x_15_20 x_15_21 x_15_22
 x_15_23 x_15_24 x_15_27 x_15_28 x_15_29 x_15_30 x_15_31 x_15_33 x_15_35
 x_15_36 x_15_37 x_15_38 x_15_39 x_15_40 x_15_41 x_15_44 x_15_45 x_15_47
 x_15_48 x_15_49 x_16_19 x_16_20 x_16_21 x_16_22 x_16_26 x_16_28 x_16_31
 x_16_32 x_16_33 x_16_34 x_16_35 x_16_36 x_16_37 x_16_39 x_16_40 x_16_41
 x_16_43 x_16_44 x_16_45 x_16_47 x_16_48 x_16_49 x_17_18 x_17_19 x_17_21
 x_17_22 x_17_23 x_17_24 x_17_25 x_17_26 x_17_27 x_17_28 x_17_29 x_17_31
 x_17_32 x_17_33 x_17_35 x_17_36 x_17_37 x_17_39 x_17_40 x_17_43 x_17_44
 x_17_45 x_17_46 x_17_47 x_17_48 x_17_49 x_18_19 x_18_20 x_18_21 x_18_22
 x_18_23 x_18_24 x_18_25 x_18_26 x_18_29 x_18_30 x_18_32 x_18_35 x_18_36
 x_18_37 x_18_38 x_18_40 x_18_41 x_18_43 x_18_44 x_18_45 x_18_46 x_18_47
 x_18_48 x_19_20 x_19_21 x_19_22 x_19_24 x_19_25 x_19_26 x_19_27 x_19_28
 x_19_29 x_19_30 x_19_31 x_19_34 x_19_38 x_19_39 x_19_40 x_19_41 x_19_42
 x_19_44 x_19_46 x_19_47 x_19_49 x_20_21 x_20_22 x_20_23 x_20_24 x_20_26
 x_20_27 x_20_29 x_20_30 x_20_33 x_20_34 x_20_35 x_20_36 x_20_37 x_20_38
 x_20_40 x_20_41 x_20_42 x_20_44 x_20_46 x_20_47 x_20_49 x_21_23 x_21_24
 x_21_26 x_21_27 x_21_28 x_21_29 x_21_31 x_21_34 x_21_35 x_21_36 x_21_38
 x_21_39 x_21_40 x_21_41 x_21_43 x_21_45 x_21_46 x_21_48 x_22_23 x_22_24
 x_22_25 x_22_26 x_22_27 x_22_29 x_22_30 x_22_31 x_22_32 x_22_33 x_22_34
 x_22_35 x_22_38 x_22_39 x_22_40 x_22_42 x_22_43 x_22_44 x_22_45 x_22_46
 x_22_47 x_22_48 x_22_49 x_23_24 x_23_25 x_23_26 x_23_28 x_23_29 x_23_31
 x_23_32 x_23_33 x_23_34 x_23_35 x_23_36 x_23_37 x_23_39 x_23_40 x_23_41
 x_23_42 x_23_43 x_23_44 x_23_45 x_23_49 x_24_27 x_24_30 x_24_31 x_24_32
 x_24_33 x_24_35 x_24_37 x_24_42 x_24_43 x_24_44 x_24_45 x_24_47 x_24_49
 x_25_26 x_25_29 x_25_33 x_25_34 x_25_35 x_25_36 x_25_38 x_25_39 x_25_40
 x_25_41 x_25_42 x_25_45 x_25_48 x_25_49 x_26_27 x_26_28 x_26_29 x_26_30
 x_26_31 x_26_33 x_26_36 x_26_37 x_26_38 x_26_40 x_26_41 x_26_43 x_26_44
 x_26_46 x_26_47 x_26_49 x_27_29 x_27_30 x_27_32 x_27_33 x_27_34 x_27_37
 x_27_38 x_27_41 x_27_42 x_27_43 x_27_44 x_27_46 x_27_48 x_27_49 x_28_29
 x_28_30 x_28_31 x_28_32 x_28_33 x_28_34 x_28_36 x_28_37 x_28_38 x_28_40
 x_28_41 x_28_42 x_28_43 x_28_44 x_28_45 x_28_47 x_28_48 x_29_31 x_29_33
 x_29_35 x_29_36 x_29_37 x_29_38 x_29_39 x_29_41 x_29_42 x_29_47 x_29_48
 x_30_31 x_30_32 x_30_33 x_30_35 x_30_36 x_30_38 x_30_39 x_30_40 x_30_41
 x_30_43 x_30_45 x_30_46 x_30_47 x_30_48 x_31_32 x_31_33 x_31_34 x_31_35
 x_31_37 x_31_38 x_31_39 x_31_40 x_31_42 x_31_43 x_31_45 x_31_46 x_31_47
 x_31_48 x_31_49 x_32_33 x_32_34 x_32_35 x_32_36 x_32_37 x_32_39 x_32_40
 x_32_41 x_32_43 x_32_44 x_32_45 x_32_46 x_32_47 x_32_49 x_33_34 x_33_36
 x_33_37 x_33_38 x_33_40 x_33_41 x_33_44 x_33_45 x_33_46 x_33_47 x_33_48
 x_33_49 x_34_39 x_34_40 x_34_41 x_34_42 x_34_45 x_34_46 x_34_48 x_35_37
 x_35_38 x_35_39 x_35_40 x_35_42 x_35_43 x_35_44 x_35_46 x_35_48 x_35_49
 x_36_37 x_36_39 x_36_41 x_36_42 x_36_44 x_36_45 x_36_47 x_36_48 x_36_49
 x_37_39 x_37_40 x_37_41 x_37_42 x_37_44 x_37_45 x_37_46 x_37_48 x_37_49
 x_38_39 x_38_40 x_38_42 x_38_45 x_38_46 x_38_47 x_38_48 x_39_40 x_39_42
 x_39_44 x_39_46 x_39_47 x_39_48 x_40_41 x_40_42 x_40_43 x_40_44 x_40_45
 x_40_46 x_40_47 x_40_48 x_40_49 x_41_42 x_41_45 x_41_46 x_41_47 x_41_48
 x_41_49 x_42_43 x_42_44 x_42_46 x_42_47 x_42_49 x_43_44 x_43_47 x_43_48
 x_43_49 x_44_45 x_44_46 x_44_49 x_45_46 x_45_47 x_45_49 x_46_47 x_46_48
 x_46_49 x_47_48
End
